c File: flat100_3_0.col
c
c SOURCE: Joseph Culberson (joe@cs.ualberta.ca)
c DESCRIPTION: Quasi-random coloring problem
c              generated with flatness = 0
c                             probability = 0.072
c                             known coloring = 3
c                             random seed = 1008
c              Creation Date:  Thu Jun  4 18:54:47 1998
c Maximum degree = 8 Minimum degree = 0
c p edge 100 239
c cnf created by edge2cnf
p cnf 300 1117
-1 -2 0
-1 -3 0
-2 -3 0
1 2 3 0
-4 -5 0
-4 -6 0
-5 -6 0
4 5 6 0
-7 -8 0
-7 -9 0
-8 -9 0
7 8 9 0
-10 -11 0
-10 -12 0
-11 -12 0
10 11 12 0
-13 -14 0
-13 -15 0
-14 -15 0
13 14 15 0
-16 -17 0
-16 -18 0
-17 -18 0
16 17 18 0
-19 -20 0
-19 -21 0
-20 -21 0
19 20 21 0
-22 -23 0
-22 -24 0
-23 -24 0
22 23 24 0
-25 -26 0
-25 -27 0
-26 -27 0
25 26 27 0
-28 -29 0
-28 -30 0
-29 -30 0
28 29 30 0
-31 -32 0
-31 -33 0
-32 -33 0
31 32 33 0
-34 -35 0
-34 -36 0
-35 -36 0
34 35 36 0
-37 -38 0
-37 -39 0
-38 -39 0
37 38 39 0
-40 -41 0
-40 -42 0
-41 -42 0
40 41 42 0
-43 -44 0
-43 -45 0
-44 -45 0
43 44 45 0
-46 -47 0
-46 -48 0
-47 -48 0
46 47 48 0
-49 -50 0
-49 -51 0
-50 -51 0
49 50 51 0
-52 -53 0
-52 -54 0
-53 -54 0
52 53 54 0
-55 -56 0
-55 -57 0
-56 -57 0
55 56 57 0
-58 -59 0
-58 -60 0
-59 -60 0
58 59 60 0
-61 -62 0
-61 -63 0
-62 -63 0
61 62 63 0
-64 -65 0
-64 -66 0
-65 -66 0
64 65 66 0
-67 -68 0
-67 -69 0
-68 -69 0
67 68 69 0
-70 -71 0
-70 -72 0
-71 -72 0
70 71 72 0
-73 -74 0
-73 -75 0
-74 -75 0
73 74 75 0
-76 -77 0
-76 -78 0
-77 -78 0
76 77 78 0
-79 -80 0
-79 -81 0
-80 -81 0
79 80 81 0
-82 -83 0
-82 -84 0
-83 -84 0
82 83 84 0
-85 -86 0
-85 -87 0
-86 -87 0
85 86 87 0
-88 -89 0
-88 -90 0
-89 -90 0
88 89 90 0
-91 -92 0
-91 -93 0
-92 -93 0
91 92 93 0
-94 -95 0
-94 -96 0
-95 -96 0
94 95 96 0
-97 -98 0
-97 -99 0
-98 -99 0
97 98 99 0
-100 -101 0
-100 -102 0
-101 -102 0
100 101 102 0
-103 -104 0
-103 -105 0
-104 -105 0
103 104 105 0
-106 -107 0
-106 -108 0
-107 -108 0
106 107 108 0
-109 -110 0
-109 -111 0
-110 -111 0
109 110 111 0
-112 -113 0
-112 -114 0
-113 -114 0
112 113 114 0
-115 -116 0
-115 -117 0
-116 -117 0
115 116 117 0
-118 -119 0
-118 -120 0
-119 -120 0
118 119 120 0
-121 -122 0
-121 -123 0
-122 -123 0
121 122 123 0
-124 -125 0
-124 -126 0
-125 -126 0
124 125 126 0
-127 -128 0
-127 -129 0
-128 -129 0
127 128 129 0
-130 -131 0
-130 -132 0
-131 -132 0
130 131 132 0
-133 -134 0
-133 -135 0
-134 -135 0
133 134 135 0
-136 -137 0
-136 -138 0
-137 -138 0
136 137 138 0
-139 -140 0
-139 -141 0
-140 -141 0
139 140 141 0
-142 -143 0
-142 -144 0
-143 -144 0
142 143 144 0
-145 -146 0
-145 -147 0
-146 -147 0
145 146 147 0
-148 -149 0
-148 -150 0
-149 -150 0
148 149 150 0
-151 -152 0
-151 -153 0
-152 -153 0
151 152 153 0
-154 -155 0
-154 -156 0
-155 -156 0
154 155 156 0
-157 -158 0
-157 -159 0
-158 -159 0
157 158 159 0
-160 -161 0
-160 -162 0
-161 -162 0
160 161 162 0
-163 -164 0
-163 -165 0
-164 -165 0
163 164 165 0
-166 -167 0
-166 -168 0
-167 -168 0
166 167 168 0
-169 -170 0
-169 -171 0
-170 -171 0
169 170 171 0
-172 -173 0
-172 -174 0
-173 -174 0
172 173 174 0
-175 -176 0
-175 -177 0
-176 -177 0
175 176 177 0
-178 -179 0
-178 -180 0
-179 -180 0
178 179 180 0
-181 -182 0
-181 -183 0
-182 -183 0
181 182 183 0
-184 -185 0
-184 -186 0
-185 -186 0
184 185 186 0
-187 -188 0
-187 -189 0
-188 -189 0
187 188 189 0
-190 -191 0
-190 -192 0
-191 -192 0
190 191 192 0
-193 -194 0
-193 -195 0
-194 -195 0
193 194 195 0
-196 -197 0
-196 -198 0
-197 -198 0
196 197 198 0
-199 -200 0
-199 -201 0
-200 -201 0
199 200 201 0
-202 -203 0
-202 -204 0
-203 -204 0
202 203 204 0
-205 -206 0
-205 -207 0
-206 -207 0
205 206 207 0
-208 -209 0
-208 -210 0
-209 -210 0
208 209 210 0
-211 -212 0
-211 -213 0
-212 -213 0
211 212 213 0
-214 -215 0
-214 -216 0
-215 -216 0
214 215 216 0
-217 -218 0
-217 -219 0
-218 -219 0
217 218 219 0
-220 -221 0
-220 -222 0
-221 -222 0
220 221 222 0
-223 -224 0
-223 -225 0
-224 -225 0
223 224 225 0
-226 -227 0
-226 -228 0
-227 -228 0
226 227 228 0
-229 -230 0
-229 -231 0
-230 -231 0
229 230 231 0
-232 -233 0
-232 -234 0
-233 -234 0
232 233 234 0
-235 -236 0
-235 -237 0
-236 -237 0
235 236 237 0
-238 -239 0
-238 -240 0
-239 -240 0
238 239 240 0
-241 -242 0
-241 -243 0
-242 -243 0
241 242 243 0
-244 -245 0
-244 -246 0
-245 -246 0
244 245 246 0
-247 -248 0
-247 -249 0
-248 -249 0
247 248 249 0
-250 -251 0
-250 -252 0
-251 -252 0
250 251 252 0
-253 -254 0
-253 -255 0
-254 -255 0
253 254 255 0
-256 -257 0
-256 -258 0
-257 -258 0
256 257 258 0
-259 -260 0
-259 -261 0
-260 -261 0
259 260 261 0
-262 -263 0
-262 -264 0
-263 -264 0
262 263 264 0
-265 -266 0
-265 -267 0
-266 -267 0
265 266 267 0
-268 -269 0
-268 -270 0
-269 -270 0
268 269 270 0
-271 -272 0
-271 -273 0
-272 -273 0
271 272 273 0
-274 -275 0
-274 -276 0
-275 -276 0
274 275 276 0
-277 -278 0
-277 -279 0
-278 -279 0
277 278 279 0
-280 -281 0
-280 -282 0
-281 -282 0
280 281 282 0
-283 -284 0
-283 -285 0
-284 -285 0
283 284 285 0
-286 -287 0
-286 -288 0
-287 -288 0
286 287 288 0
-289 -290 0
-289 -291 0
-290 -291 0
289 290 291 0
-292 -293 0
-292 -294 0
-293 -294 0
292 293 294 0
-295 -296 0
-295 -297 0
-296 -297 0
295 296 297 0
-298 -299 0
-298 -300 0
-299 -300 0
298 299 300 0
-112 -1 0
-113 -2 0
-114 -3 0
-118 -1 0
-119 -2 0
-120 -3 0
-157 -1 0
-158 -2 0
-159 -3 0
-193 -1 0
-194 -2 0
-195 -3 0
-214 -1 0
-215 -2 0
-216 -3 0
-220 -1 0
-221 -2 0
-222 -3 0
-286 -1 0
-287 -2 0
-288 -3 0
-298 -1 0
-299 -2 0
-300 -3 0
-145 -4 0
-146 -5 0
-147 -6 0
-166 -4 0
-167 -5 0
-168 -6 0
-202 -4 0
-203 -5 0
-204 -6 0
-271 -4 0
-272 -5 0
-273 -6 0
-190 -7 0
-191 -8 0
-192 -9 0
-193 -7 0
-194 -8 0
-195 -9 0
-196 -7 0
-197 -8 0
-198 -9 0
-238 -7 0
-239 -8 0
-240 -9 0
-283 -7 0
-284 -8 0
-285 -9 0
-298 -7 0
-299 -8 0
-300 -9 0
-178 -10 0
-179 -11 0
-180 -12 0
-187 -10 0
-188 -11 0
-189 -12 0
-169 -13 0
-170 -14 0
-171 -15 0
-175 -13 0
-176 -14 0
-177 -15 0
-193 -13 0
-194 -14 0
-195 -15 0
-229 -13 0
-230 -14 0
-231 -15 0
-250 -13 0
-251 -14 0
-252 -15 0
-130 -16 0
-131 -17 0
-132 -18 0
-142 -16 0
-143 -17 0
-144 -18 0
-289 -16 0
-290 -17 0
-291 -18 0
-109 -19 0
-110 -20 0
-111 -21 0
-127 -19 0
-128 -20 0
-129 -21 0
-160 -19 0
-161 -20 0
-162 -21 0
-256 -19 0
-257 -20 0
-258 -21 0
-283 -19 0
-284 -20 0
-285 -21 0
-298 -19 0
-299 -20 0
-300 -21 0
-145 -22 0
-146 -23 0
-147 -24 0
-151 -22 0
-152 -23 0
-153 -24 0
-184 -22 0
-185 -23 0
-186 -24 0
-217 -22 0
-218 -23 0
-219 -24 0
-220 -22 0
-221 -23 0
-222 -24 0
-226 -22 0
-227 -23 0
-228 -24 0
-109 -25 0
-110 -26 0
-111 -27 0
-115 -25 0
-116 -26 0
-117 -27 0
-118 -25 0
-119 -26 0
-120 -27 0
-196 -25 0
-197 -26 0
-198 -27 0
-232 -25 0
-233 -26 0
-234 -27 0
-139 -28 0
-140 -29 0
-141 -30 0
-226 -28 0
-227 -29 0
-228 -30 0
-250 -28 0
-251 -29 0
-252 -30 0
-292 -28 0
-293 -29 0
-294 -30 0
-295 -28 0
-296 -29 0
-297 -30 0
-130 -31 0
-131 -32 0
-132 -33 0
-163 -31 0
-164 -32 0
-165 -33 0
-256 -31 0
-257 -32 0
-258 -33 0
-262 -31 0
-263 -32 0
-264 -33 0
-277 -31 0
-278 -32 0
-279 -33 0
-286 -31 0
-287 -32 0
-288 -33 0
-187 -34 0
-188 -35 0
-189 -36 0
-256 -34 0
-257 -35 0
-258 -36 0
-292 -34 0
-293 -35 0
-294 -36 0
-112 -37 0
-113 -38 0
-114 -39 0
-136 -37 0
-137 -38 0
-138 -39 0
-226 -37 0
-227 -38 0
-228 -39 0
-235 -37 0
-236 -38 0
-237 -39 0
-265 -37 0
-266 -38 0
-267 -39 0
-292 -37 0
-293 -38 0
-294 -39 0
-112 -40 0
-113 -41 0
-114 -42 0
-181 -40 0
-182 -41 0
-183 -42 0
-187 -40 0
-188 -41 0
-189 -42 0
-211 -40 0
-212 -41 0
-213 -42 0
-274 -40 0
-275 -41 0
-276 -42 0
-145 -43 0
-146 -44 0
-147 -45 0
-181 -43 0
-182 -44 0
-183 -45 0
-217 -43 0
-218 -44 0
-219 -45 0
-271 -43 0
-272 -44 0
-273 -45 0
-118 -46 0
-119 -47 0
-120 -48 0
-265 -46 0
-266 -47 0
-267 -48 0
-124 -49 0
-125 -50 0
-126 -51 0
-136 -49 0
-137 -50 0
-138 -51 0
-238 -49 0
-239 -50 0
-240 -51 0
-241 -49 0
-242 -50 0
-243 -51 0
-244 -49 0
-245 -50 0
-246 -51 0
-259 -49 0
-260 -50 0
-261 -51 0
-109 -52 0
-110 -53 0
-111 -54 0
-151 -52 0
-152 -53 0
-153 -54 0
-154 -52 0
-155 -53 0
-156 -54 0
-172 -52 0
-173 -53 0
-174 -54 0
-205 -52 0
-206 -53 0
-207 -54 0
-259 -52 0
-260 -53 0
-261 -54 0
-274 -52 0
-275 -53 0
-276 -54 0
-277 -52 0
-278 -53 0
-279 -54 0
-190 -55 0
-191 -56 0
-192 -57 0
-220 -55 0
-221 -56 0
-222 -57 0
-247 -55 0
-248 -56 0
-249 -57 0
-139 -58 0
-140 -59 0
-141 -60 0
-154 -58 0
-155 -59 0
-156 -60 0
-280 -58 0
-281 -59 0
-282 -60 0
-103 -61 0
-104 -62 0
-105 -63 0
-118 -61 0
-119 -62 0
-120 -63 0
-142 -61 0
-143 -62 0
-144 -63 0
-160 -61 0
-161 -62 0
-162 -63 0
-223 -61 0
-224 -62 0
-225 -63 0
-253 -61 0
-254 -62 0
-255 -63 0
-178 -64 0
-179 -65 0
-180 -66 0
-208 -64 0
-209 -65 0
-210 -66 0
-220 -64 0
-221 -65 0
-222 -66 0
-244 -64 0
-245 -65 0
-246 -66 0
-187 -67 0
-188 -68 0
-189 -69 0
-205 -67 0
-206 -68 0
-207 -69 0
-262 -67 0
-263 -68 0
-264 -69 0
-265 -67 0
-266 -68 0
-267 -69 0
-295 -67 0
-296 -68 0
-297 -69 0
-145 -70 0
-146 -71 0
-147 -72 0
-151 -70 0
-152 -71 0
-153 -72 0
-163 -70 0
-164 -71 0
-165 -72 0
-199 -70 0
-200 -71 0
-201 -72 0
-262 -70 0
-263 -71 0
-264 -72 0
-112 -73 0
-113 -74 0
-114 -75 0
-148 -73 0
-149 -74 0
-150 -75 0
-154 -73 0
-155 -74 0
-156 -75 0
-238 -73 0
-239 -74 0
-240 -75 0
-268 -73 0
-269 -74 0
-270 -75 0
-142 -76 0
-143 -77 0
-144 -78 0
-163 -76 0
-164 -77 0
-165 -78 0
-199 -76 0
-200 -77 0
-201 -78 0
-295 -76 0
-296 -77 0
-297 -78 0
-298 -76 0
-299 -77 0
-300 -78 0
-139 -79 0
-140 -80 0
-141 -81 0
-211 -79 0
-212 -80 0
-213 -81 0
-214 -79 0
-215 -80 0
-216 -81 0
-253 -79 0
-254 -80 0
-255 -81 0
-286 -79 0
-287 -80 0
-288 -81 0
-127 -82 0
-128 -83 0
-129 -84 0
-130 -82 0
-131 -83 0
-132 -84 0
-142 -82 0
-143 -83 0
-144 -84 0
-184 -82 0
-185 -83 0
-186 -84 0
-223 -82 0
-224 -83 0
-225 -84 0
-235 -82 0
-236 -83 0
-237 -84 0
-115 -85 0
-116 -86 0
-117 -87 0
-139 -85 0
-140 -86 0
-141 -87 0
-172 -85 0
-173 -86 0
-174 -87 0
-229 -85 0
-230 -86 0
-231 -87 0
-238 -85 0
-239 -86 0
-240 -87 0
-121 -91 0
-122 -92 0
-123 -93 0
-160 -91 0
-161 -92 0
-162 -93 0
-250 -91 0
-251 -92 0
-252 -93 0
-280 -91 0
-281 -92 0
-282 -93 0
-151 -94 0
-152 -95 0
-153 -96 0
-157 -94 0
-158 -95 0
-159 -96 0
-193 -94 0
-194 -95 0
-195 -96 0
-175 -97 0
-176 -98 0
-177 -99 0
-223 -97 0
-224 -98 0
-225 -99 0
-256 -97 0
-257 -98 0
-258 -99 0
-271 -97 0
-272 -98 0
-273 -99 0
-274 -97 0
-275 -98 0
-276 -99 0
-106 -100 0
-107 -101 0
-108 -102 0
-121 -100 0
-122 -101 0
-123 -102 0
-127 -100 0
-128 -101 0
-129 -102 0
-226 -100 0
-227 -101 0
-228 -102 0
-235 -100 0
-236 -101 0
-237 -102 0
-277 -100 0
-278 -101 0
-279 -102 0
-295 -100 0
-296 -101 0
-297 -102 0
-229 -103 0
-230 -104 0
-231 -105 0
-226 -106 0
-227 -107 0
-228 -108 0
-229 -106 0
-230 -107 0
-231 -108 0
-280 -106 0
-281 -107 0
-282 -108 0
-262 -109 0
-263 -110 0
-264 -111 0
-271 -109 0
-272 -110 0
-273 -111 0
-289 -109 0
-290 -110 0
-291 -111 0
-217 -112 0
-218 -113 0
-219 -114 0
-241 -112 0
-242 -113 0
-243 -114 0
-295 -112 0
-296 -113 0
-297 -114 0
-214 -115 0
-215 -116 0
-216 -117 0
-244 -115 0
-245 -116 0
-246 -117 0
-217 -118 0
-218 -119 0
-219 -120 0
-226 -118 0
-227 -119 0
-228 -120 0
-265 -118 0
-266 -119 0
-267 -120 0
-292 -118 0
-293 -119 0
-294 -120 0
-250 -121 0
-251 -122 0
-252 -123 0
-256 -121 0
-257 -122 0
-258 -123 0
-208 -127 0
-209 -128 0
-210 -129 0
-223 -127 0
-224 -128 0
-225 -129 0
-274 -127 0
-275 -128 0
-276 -129 0
-208 -130 0
-209 -131 0
-210 -132 0
-262 -130 0
-263 -131 0
-264 -132 0
-265 -130 0
-266 -131 0
-267 -132 0
-292 -130 0
-293 -131 0
-294 -132 0
-232 -133 0
-233 -134 0
-234 -135 0
-214 -136 0
-215 -137 0
-216 -138 0
-241 -136 0
-242 -137 0
-243 -138 0
-244 -136 0
-245 -137 0
-246 -138 0
-295 -136 0
-296 -137 0
-297 -138 0
-217 -139 0
-218 -140 0
-219 -141 0
-202 -142 0
-203 -143 0
-204 -144 0
-235 -142 0
-236 -143 0
-237 -144 0
-250 -145 0
-251 -146 0
-252 -147 0
-211 -148 0
-212 -149 0
-213 -150 0
-256 -148 0
-257 -149 0
-258 -150 0
-268 -148 0
-269 -149 0
-270 -150 0
-214 -151 0
-215 -152 0
-216 -153 0
-241 -151 0
-242 -152 0
-243 -153 0
-238 -154 0
-239 -155 0
-240 -156 0
-271 -154 0
-272 -155 0
-273 -156 0
-220 -157 0
-221 -158 0
-222 -159 0
-214 -160 0
-215 -161 0
-216 -162 0
-244 -160 0
-245 -161 0
-246 -162 0
-286 -160 0
-287 -161 0
-288 -162 0
-274 -163 0
-275 -164 0
-276 -165 0
-238 -166 0
-239 -167 0
-240 -168 0
-271 -166 0
-272 -167 0
-273 -168 0
-286 -166 0
-287 -167 0
-288 -168 0
-208 -169 0
-209 -170 0
-210 -171 0
-265 -169 0
-266 -170 0
-267 -171 0
-277 -169 0
-278 -170 0
-279 -171 0
-280 -169 0
-281 -170 0
-282 -171 0
-223 -172 0
-224 -173 0
-225 -174 0
-238 -172 0
-239 -173 0
-240 -174 0
-280 -172 0
-281 -173 0
-282 -174 0
-289 -172 0
-290 -173 0
-291 -174 0
-289 -175 0
-290 -176 0
-291 -177 0
-244 -178 0
-245 -179 0
-246 -180 0
-271 -178 0
-272 -179 0
-273 -180 0
-292 -178 0
-293 -179 0
-294 -180 0
-217 -181 0
-218 -182 0
-219 -183 0
-229 -181 0
-230 -182 0
-231 -183 0
-253 -184 0
-254 -185 0
-255 -186 0
-268 -184 0
-269 -185 0
-270 -186 0
-223 -187 0
-224 -188 0
-225 -189 0
-247 -187 0
-248 -188 0
-249 -189 0
-259 -187 0
-260 -188 0
-261 -189 0
-274 -190 0
-275 -191 0
-276 -192 0
-235 -193 0
-236 -194 0
-237 -195 0
-277 -193 0
-278 -194 0
-279 -195 0
-289 -193 0
-290 -194 0
-291 -195 0
-202 -196 0
-203 -197 0
-204 -198 0
-229 -196 0
-230 -197 0
-231 -198 0
-232 -196 0
-233 -197 0
-234 -198 0
-238 -199 0
-239 -200 0
-240 -201 0
-256 -199 0
-257 -200 0
-258 -201 0
-268 -199 0
-269 -200 0
-270 -201 0
